20190722 50 2000 0 0
20130514 130 0 0 0
20120426 100 0 0 0
20090605 100 0 0 0
20070620 100 0 0 0
20050822 0 3800 0 0
20050615 100 0 0 0
20010601 25 0 0 0
20000523 0 8000 0 0
19990604 0 5000 0 0
19980626 100 0 0 0
